
Gurobi 11.0.3 (linux64) logging started Fri Nov 22 21:25:46 2024

Set parameter LogFile to value "/home/yihong/Coding/OR_SUC/SUC_results_bigM100000_thread4/case24_ieee_rts_theta0.1_epsilon0.025_gurobi_seed660000_num_gen100_N_WDR100_load_scaling_factor1_exact_T16quadra_cost.txt"
Set parameter TimeLimit to value 3600
Gurobi Optimizer version 11.0.3 build v11.0.3rc0 (linux64 - "Ubuntu 20.04.6 LTS")

CPU model: AMD EPYC 7532 32-Core Processor, instruction set [SSE2|AVX|AVX2]
Thread count: 64 physical cores, 128 logical processors, using up to 4 threads

Optimize a model with 34563 rows, 20041 columns and 474826 nonzeros
Model fingerprint: 0xf7db2c7f
Model has 1600 quadratic constraints
Variable types: 18341 continuous, 1700 integer (1700 binary)
Coefficient statistics:
  Matrix range     [3e-04, 1e+05]
  QMatrix range    [2e-03, 8e-03]
  QLMatrix range   [3e-01, 6e+01]
  Objective range  [1e+00, 1e+00]
  Bounds range     [1e+00, 1e+00]
  RHS range        [1e+00, 1e+05]
Presolve removed 28068 rows and 8760 columns
Presolve time: 0.15s
Presolved: 6495 rows, 11281 columns, 39520 nonzeros
Presolved model has 1600 quadratic constraint(s)
Variable types: 9630 continuous, 1651 integer (1651 binary)

Root relaxation: objective 2.231498e+04, 5715 iterations, 0.11 seconds (0.16 work units)

    Nodes    |    Current Node    |     Objective Bounds      |     Work
 Expl Unexpl |  Obj  Depth IntInf | Incumbent    BestBd   Gap | It/Node Time

     0     0 22314.9802    0   19          - 22314.9802      -     -    0s
     0     0 167676.089    0  589          - 167676.089      -     -    0s
     0     0 355739.965    0  518          - 355739.965      -     -    0s
     0     0 355752.918    0  291          - 355752.918      -     -    0s
     0     0 356302.606    0  211          - 356302.606      -     -    0s
     0     0 356304.590    0  211          - 356304.590      -     -    0s
     0     0 356478.339    0  207          - 356478.339      -     -    1s
     0     0 356480.222    0  207          - 356480.222      -     -    1s
     0     2 356480.222    0  207          - 356480.222      -     -    1s
H  595   390                    356848.22950 356518.211  0.09%  21.5    2s
*  595   390             147    356848.22950 356518.211  0.09%  21.5    2s

Cutting planes:
  Gomory: 16
  Implied bound: 316
  MIR: 47
  Flow cover: 111
  RLT: 16
  PSD: 13

Explored 673 nodes (28384 simplex iterations) in 3.53 seconds (4.57 work units)
Thread count was 4 (of 128 available processors)

Solution count 2: 356848 356848 

Optimal solution found (tolerance 1.00e-03)
Warning: max constraint violation (1.9855e-07) exceeds tolerance
Best objective 3.568482295025e+05, best bound 3.565264918872e+05, gap 0.0902%
